(set-info :source |printed by MathSAT|)
(declare-fun |.x{81}| () Int)
(declare-fun |.y{8}| () Int)
(declare-fun |.y{7}| () Int)
(declare-fun |.y{9}| () Int)
(declare-fun |.x{82}| () (Array Int Int))
(declare-fun |.y{10}| () (Array Int Int))
(declare-fun |.x{85}| () Int)
(declare-fun |.y{11}| () Int)
(declare-fun |.x{80}| () Int)
(declare-fun |.y{12}| () Int)
(declare-fun |.x{77}| () Int)
(declare-fun |.y{13}| () Int)
(declare-fun |.loc{3}| () Bool)
(declare-fun |.loc{5}| () Bool)
(declare-fun |.loc{4}| () Bool)
(declare-fun |.loc{6}| () Bool)
(declare-fun |.x{83}| () Int)
(define-fun .def_20 () Bool (! |.loc{3}| :next |.loc{5}|))
(define-fun .def_67 () Bool (not .def_20))
(define-fun .def_22 () Bool (! |.loc{4}| :next |.loc{6}|))
(define-fun .def_51 () Bool (not .def_22))
(define-fun .def_125 () Bool (! (and .def_51 .def_67) :init true))
(define-fun .def_12 () (Array Int Int) (! |.x{82}| :next |.y{10}|))
(define-fun .def_97 () Int (select .def_12 |.x{83}|))
(define-fun .def_14 () Int (! |.x{85}| :next |.y{11}|))
(define-fun .def_98 () Bool (<= .def_14 .def_97))
(define-fun .def_117 () Bool (not .def_98))
(define-fun .def_55 () Int (* (- 1) |.x{83}|))
(define-fun .def_16 () Int (! |.x{80}| :next |.y{12}|))
(define-fun .def_81 () Int (* 4 .def_16))
(define-fun .def_83 () Int (+ .def_81 .def_55))
(define-fun .def_8 () Int (! |.x{81}| :next |.y{8}|))
(define-fun .def_84 () Int (+ .def_8 .def_83))
(define-fun .def_85 () Bool (= .def_84 0))
(define-fun .def_112 () Bool (and |.loc{5}| .def_85))
(define-fun .def_18 () Int (! |.x{77}| :next |.y{13}|))
(define-fun .def_89 () Bool (<= .def_18 .def_16))
(define-fun .def_90 () Bool (not .def_89))
(define-fun .def_113 () Bool (and .def_90 .def_112))
(define-fun .def_40 () Bool (<= .def_8 0))
(define-fun .def_38 () Bool (<= |.x{83}| 0))
(define-fun .def_39 () Bool (not .def_38))
(define-fun .def_41 () Bool (or .def_39 .def_40))
(define-fun .def_114 () Bool (and .def_41 .def_113))
(define-fun .def_46 () Bool (not .def_40))
(define-fun .def_115 () Bool (and .def_46 .def_114))
(define-fun .def_116 () Bool (and .def_22 .def_115))
(define-fun .def_118 () Bool (and .def_116 .def_117))
(define-fun .def_119 () Bool (and .def_67 .def_118))
(define-fun .def_108 () Bool (= |.y{12}| 0))
(define-fun .def_103 () Bool (= .def_16 |.y{13}|))
(define-fun .def_77 () Bool (= .def_12 |.y{10}|))
(define-fun .def_25 () Bool (= .def_14 |.y{11}|))
(define-fun .def_102 () Bool (and .def_25 .def_77))
(define-fun .def_104 () Bool (and .def_102 .def_103))
(define-fun .def_94 () Bool (not |.loc{5}|))
(define-fun .def_105 () Bool (and .def_94 .def_104))
(define-fun .def_106 () Bool (and .def_20 .def_105))
(define-fun .def_107 () Bool (and .def_51 .def_106))
(define-fun .def_109 () Bool (and .def_107 .def_108))
(define-fun .def_10 () Int (! |.y{7}| :next |.y{9}|))
(define-fun .def_43 () Bool (<= .def_16 .def_10))
(define-fun .def_110 () Bool (and .def_43 .def_109))
(define-fun .def_60 () Bool (= .def_8 |.y{8}|))
(define-fun .def_111 () Bool (and .def_60 .def_110))
(define-fun .def_120 () Bool (or .def_111 .def_119))
(define-fun .def_87 () Bool (= .def_18 |.y{13}|))
(define-fun .def_74 () Int (* (- 1) |.y{12}|))
(define-fun .def_75 () Int (+ .def_16 .def_74))
(define-fun .def_76 () Bool (= .def_75 (- 1)))
(define-fun .def_78 () Bool (and .def_76 .def_77))
(define-fun .def_79 () Bool (and .def_25 .def_78))
(define-fun .def_86 () Bool (and .def_79 .def_85))
(define-fun .def_88 () Bool (and .def_86 .def_87))
(define-fun .def_91 () Bool (and .def_88 .def_90))
(define-fun .def_92 () Bool (and .def_41 .def_91))
(define-fun .def_93 () Bool (and .def_46 .def_92))
(define-fun .def_95 () Bool (and .def_93 .def_94))
(define-fun .def_96 () Bool (and .def_22 .def_95))
(define-fun .def_99 () Bool (and .def_96 .def_98))
(define-fun .def_100 () Bool (and .def_67 .def_99))
(define-fun .def_101 () Bool (and .def_60 .def_100))
(define-fun .def_121 () Bool (or .def_101 .def_120))
(define-fun .def_122 () Bool (and |.loc{6}| .def_121))
(define-fun .def_71 () Bool (<= |.y{8}| 0))
(define-fun .def_72 () Bool (not .def_71))
(define-fun .def_69 () Bool (= |.y{9}| 0))
(define-fun .def_62 () Bool (<= |.y{12}| 0))
(define-fun .def_63 () Bool (not .def_62))
(define-fun .def_64 () Bool (and |.loc{5}| .def_63))
(define-fun .def_48 () Bool (not |.loc{6}|))
(define-fun .def_65 () Bool (and .def_48 .def_64))
(define-fun .def_66 () Bool (and .def_51 .def_65))
(define-fun .def_68 () Bool (and .def_66 .def_67))
(define-fun .def_70 () Bool (and .def_68 .def_69))
(define-fun .def_73 () Bool (and .def_70 .def_72))
(define-fun .def_123 () Bool (or .def_73 .def_122))
(define-fun .def_54 () Int (* 4 .def_10))
(define-fun .def_56 () Int (+ .def_54 .def_55))
(define-fun .def_57 () Int (+ .def_8 .def_56))
(define-fun .def_58 () Bool (= .def_57 0))
(define-fun .def_44 () Bool (not .def_43))
(define-fun .def_34 () (Array Int Int) (store .def_12 |.x{83}| .def_14))
(define-fun .def_35 () Bool (= |.y{10}| .def_34))
(define-fun .def_29 () Int (* (- 1) |.y{9}|))
(define-fun .def_30 () Int (+ .def_10 .def_29))
(define-fun .def_31 () Bool (= .def_30 (- 1)))
(define-fun .def_24 () Bool (= .def_16 |.y{12}|))
(define-fun .def_26 () Bool (and .def_24 .def_25))
(define-fun .def_27 () Bool (and |.loc{5}| .def_26))
(define-fun .def_32 () Bool (and .def_27 .def_31))
(define-fun .def_36 () Bool (and .def_32 .def_35))
(define-fun .def_42 () Bool (and .def_36 .def_41))
(define-fun .def_45 () Bool (and .def_42 .def_44))
(define-fun .def_47 () Bool (and .def_45 .def_46))
(define-fun .def_49 () Bool (and .def_47 .def_48))
(define-fun .def_50 () Bool (and .def_20 .def_49))
(define-fun .def_52 () Bool (and .def_50 .def_51))
(define-fun .def_59 () Bool (and .def_52 .def_58))
(define-fun .def_61 () Bool (and .def_59 .def_60))
(define-fun .def_124 () Bool (! (or .def_61 .def_123) :trans true))
(define-fun .def_126 () Bool (and .def_20 .def_22))
(define-fun .def_127 () Bool (! (not .def_126) :invar-property 0))
(assert true)
